************************************************************************
file with basedata            : mm4_.bas
initial value random generator: 777663122
************************************************************************
projects                      :  1
jobs (incl. supersource/sink ):  12
horizon                       :  74
RESOURCES
  - renewable                 :  2   R
  - nonrenewable              :  2   N
  - doubly constrained        :  0   D
************************************************************************
PROJECT INFORMATION:
pronr.  #jobs rel.date duedate tardcost  MPM-Time
    1     10      0       20        8       20
************************************************************************
PRECEDENCE RELATIONS:
jobnr.    #modes  #successors   successors
   0        1          3           1   2   3
   1        3          3           4   5   8
   2        3          2           6   9
   3        3          1           8
   4        3          2           9  10
   5        3          2           6   9
   6        3          1           7
   7        3          1          10
   8        3          1          11
   9        3          1          11
  10        3          1          11
  11        1          0        
************************************************************************
REQUESTS/DURATIONS:
jobnr. mode duration  R 1  R 2  R 3  R 4  E(W 1)  E(W 2)  E(W 3)
------------------------------------------------------------------------
  0      1     0       0    0    0    0     0       0       0
  1      1     2       5    0    9    0    10      18       0
  2      1     4       0   10    0    6    40       0      24
  3      1     1       3    0    7    0     3       7       0
  4      1     2       4    0    7    0     8      14       0
  5      1     3       6    0    7    0    18      21       0
  6      1     6       6    0    5    0    36      30       0
  7      1     2       0    9    6    0    18      12       0
  8      1     1       5    0    3    0     5       3       0
  9      1     1       0    5    4    0     5       4       0
 10      1     7       0    9    0    9    63       0      63
 11      1     0       0    0    0    0     0       0       0
************************************************************************
RESOURCEAVAILABILITIES:
  R 1  R 2  R 3
   17   66   45
************************************************************************
RESOURCE LIMITS:
jobnr.  l(R 1)  u(R 1)  l(R 2)  u(R 2)  l(R 3)  u(R 3)
------------------------------------------------------------------------
  0        0       0       0       0       0       0
  1        3       5       5       9       0       0
  2        5      10       0       0       3       6
  3        2       3       4       7       0       0
  4        2       4       4       7       0       0
  5        3       6       4       7       0       0
  6        3       6       3       5       0       0
  7        5       9       3       6       0       0
  8        3       5       2       3       0       0
  9        3       5       2       4       0       0
 10        5       9       0       0       5       9
 11        0       0       0       0       0       0
************************************************************************
SCENARIOS:
------------------------------------------------------------------------
RESOURCE k = 1
s = 1: (0, 9, 31, 2, 8, 21, 51, 13, 5, 5, 92, 0)
s = 2: (0, 14, 36, 2, 7, 20, 52, 12, 6, 5, 59, 0)
s = 3: (0, 17, 55, 4, 8, 15, 22, 17, 6, 5, 57, 0)
s = 4: (0, 14, 32, 3, 11, 16, 49, 13, 6, 4, 85, 0)
s = 5: (0, 14, 33, 3, 7, 15, 42, 19, 8, 6, 38, 0)
s = 6: (0, 12, 32, 3, 15, 17, 30, 14, 5, 7, 39, 0)
s = 7: (0, 12, 25, 2, 5, 13, 33, 26, 5, 6, 39, 0)
s = 8: (0, 13, 68, 2, 8, 13, 40, 16, 4, 8, 36, 0)
s = 9: (0, 6, 57, 3, 11, 24, 38, 19, 7, 6, 48, 0)
s = 10: (0, 12, 66, 3, 6, 24, 39, 25, 5, 7, 59, 0)
s = 11: (0, 13, 57, 2, 10, 15, 30, 15, 7, 4, 93, 0)
s = 12: (0, 16, 23, 5, 7, 26, 21, 16, 7, 4, 71, 0)
s = 13: (0, 14, 27, 3, 14, 16, 23, 22, 3, 5, 56, 0)
s = 14: (0, 10, 52, 3, 8, 20, 21, 23, 4, 4, 74, 0)
s = 15: (0, 7, 28, 3, 5, 19, 27, 20, 6, 7, 68, 0)
s = 16: (0, 13, 31, 3, 8, 18, 33, 14, 4, 5, 75, 0)
s = 17: (0, 14, 39, 2, 6, 28, 32, 18, 6, 4, 81, 0)
s = 18: (0, 14, 34, 3, 10, 20, 23, 19, 6, 4, 89, 0)
s = 19: (0, 13, 56, 4, 6, 22, 36, 32, 7, 4, 55, 0)
s = 20: (0, 9, 37, 4, 11, 22, 31, 20, 4, 7, 55, 0)
s = 21: (0, 15, 39, 2, 10, 18, 34, 23, 4, 3, 42, 0)
s = 22: (0, 9, 64, 4, 11, 20, 23, 22, 7, 5, 43, 0)
s = 23: (0, 11, 53, 3, 6, 16, 28, 18, 5, 3, 64, 0)
s = 24: (0, 14, 23, 3, 6, 21, 30, 19, 5, 7, 72, 0)
s = 25: (0, 7, 26, 5, 9, 28, 51, 32, 6, 4, 44, 0)
s = 26: (0, 9, 39, 4, 12, 13, 34, 14, 5, 5, 97, 0)
s = 27: (0, 12, 33, 3, 7, 22, 23, 18, 4, 5, 75, 0)
s = 28: (0, 12, 40, 5, 6, 24, 35, 19, 5, 5, 56, 0)
s = 29: (0, 9, 38, 3, 10, 17, 59, 22, 5, 8, 62, 0)
s = 30: (0, 8, 33, 4, 10, 21, 32, 20, 3, 4, 63, 0)
s = 31: (0, 11, 34, 4, 8, 18, 22, 12, 6, 4, 45, 0)
s = 32: (0, 15, 31, 3, 11, 14, 39, 18, 4, 9, 46, 0)
s = 33: (0, 9, 29, 3, 8, 17, 34, 14, 5, 6, 62, 0)
s = 34: (0, 12, 47, 4, 6, 17, 32, 19, 5, 4, 60, 0)
s = 35: (0, 10, 40, 4, 9, 26, 33, 14, 4, 6, 87, 0)
s = 36: (0, 12, 41, 2, 7, 16, 29, 24, 5, 5, 100, 0)
s = 37: (0, 10, 45, 3, 6, 26, 45, 17, 5, 7, 69, 0)
s = 38: (0, 13, 67, 2, 9, 16, 34, 18, 5, 8, 83, 0)
s = 39: (0, 8, 40, 2, 11, 17, 50, 21, 6, 6, 69, 0)
s = 40: (0, 9, 43, 3, 14, 11, 47, 15, 4, 4, 80, 0)
s = 41: (0, 9, 39, 5, 5, 25, 60, 20, 6, 5, 85, 0)
s = 42: (0, 9, 35, 5, 12, 21, 38, 17, 4, 5, 36, 0)
s = 43: (0, 10, 52, 3, 6, 11, 27, 23, 7, 5, 53, 0)
s = 44: (0, 10, 24, 5, 9, 14, 27, 22, 6, 6, 66, 0)
s = 45: (0, 7, 27, 4, 10, 25, 31, 20, 7, 3, 63, 0)
s = 46: (0, 15, 34, 3, 6, 24, 26, 22, 4, 4, 73, 0)
s = 47: (0, 8, 35, 4, 7, 20, 51, 16, 4, 7, 40, 0)
s = 48: (0, 8, 25, 4, 10, 20, 49, 22, 5, 5, 68, 0)
s = 49: (0, 8, 30, 4, 8, 17, 34, 22, 6, 4, 45, 0)
s = 50: (0, 16, 28, 3, 9, 12, 54, 14, 4, 4, 63, 0)
s = 51: (0, 7, 32, 3, 7, 20, 25, 17, 4, 7, 57, 0)
s = 52: (0, 7, 53, 3, 8, 12, 44, 27, 6, 9, 47, 0)
s = 53: (0, 6, 54, 3, 6, 13, 22, 16, 7, 5, 51, 0)
s = 54: (0, 16, 36, 4, 7, 27, 38, 24, 6, 8, 50, 0)
s = 55: (0, 12, 23, 3, 8, 15, 36, 12, 4, 4, 82, 0)
s = 56: (0, 13, 36, 4, 9, 31, 37, 24, 8, 6, 81, 0)
s = 57: (0, 12, 54, 4, 13, 13, 21, 12, 6, 5, 47, 0)
s = 58: (0, 8, 48, 4, 9, 21, 30, 23, 7, 4, 70, 0)
s = 59: (0, 11, 30, 4, 7, 22, 38, 24, 6, 4, 67, 0)
s = 60: (0, 7, 43, 4, 8, 22, 27, 34, 4, 6, 65, 0)
s = 61: (0, 11, 25, 6, 8, 22, 33, 28, 6, 8, 87, 0)
s = 62: (0, 12, 44, 4, 16, 21, 42, 15, 6, 6, 48, 0)
s = 63: (0, 15, 28, 3, 7, 20, 32, 21, 8, 5, 85, 0)
s = 64: (0, 8, 31, 5, 5, 19, 40, 26, 4, 6, 59, 0)
s = 65: (0, 11, 30, 3, 8, 15, 47, 12, 4, 4, 50, 0)
s = 66: (0, 9, 66, 4, 6, 14, 22, 16, 7, 5, 69, 0)
s = 67: (0, 13, 39, 3, 7, 14, 43, 11, 9, 6, 83, 0)
s = 68: (0, 10, 32, 3, 10, 24, 27, 15, 5, 3, 63, 0)
s = 69: (0, 10, 36, 4, 9, 13, 29, 20, 6, 5, 89, 0)
s = 70: (0, 7, 33, 2, 8, 25, 25, 24, 7, 4, 53, 0)
s = 71: (0, 11, 38, 5, 6, 21, 32, 21, 5, 6, 118, 0)
s = 72: (0, 10, 53, 3, 7, 14, 44, 13, 8, 9, 67, 0)
s = 73: (0, 13, 41, 3, 8, 17, 26, 13, 7, 4, 53, 0)
s = 74: (0, 12, 52, 2, 9, 14, 30, 35, 7, 6, 42, 0)
s = 75: (0, 11, 50, 5, 5, 19, 46, 15, 8, 4, 40, 0)
s = 76: (0, 8, 39, 4, 8, 15, 39, 21, 5, 7, 53, 0)
s = 77: (0, 17, 37, 3, 12, 19, 25, 21, 5, 6, 70, 0)
s = 78: (0, 11, 22, 4, 10, 20, 41, 15, 6, 9, 39, 0)
s = 79: (0, 12, 38, 4, 12, 18, 39, 13, 4, 4, 67, 0)
s = 80: (0, 9, 56, 5, 10, 20, 55, 21, 4, 4, 63, 0)
s = 81: (0, 7, 28, 4, 10, 15, 38, 26, 9, 5, 89, 0)
s = 82: (0, 7, 55, 3, 6, 14, 25, 18, 4, 6, 88, 0)
s = 83: (0, 11, 31, 3, 12, 14, 31, 31, 5, 9, 53, 0)
s = 84: (0, 13, 30, 4, 7, 20, 39, 14, 6, 3, 51, 0)
s = 85: (0, 8, 31, 3, 6, 13, 45, 17, 7, 4, 72, 0)
s = 86: (0, 10, 49, 2, 10, 20, 32, 30, 7, 9, 39, 0)
s = 87: (0, 17, 43, 3, 11, 30, 32, 13, 4, 4, 77, 0)
s = 88: (0, 10, 40, 2, 5, 19, 29, 19, 5, 7, 51, 0)
s = 89: (0, 12, 31, 3, 12, 12, 27, 20, 6, 4, 54, 0)
s = 90: (0, 11, 41, 3, 13, 25, 25, 16, 4, 7, 59, 0)
s = 91: (0, 14, 59, 2, 10, 10, 28, 13, 4, 4, 50, 0)
s = 92: (0, 11, 43, 4, 13, 27, 29, 25, 4, 5, 45, 0)
s = 93: (0, 6, 26, 3, 10, 23, 57, 16, 8, 5, 45, 0)
s = 94: (0, 8, 58, 3, 6, 24, 46, 23, 6, 5, 57, 0)
s = 95: (0, 8, 65, 4, 7, 20, 49, 11, 6, 5, 52, 0)
s = 96: (0, 9, 27, 3, 7, 18, 26, 11, 7, 8, 117, 0)
s = 97: (0, 9, 52, 2, 11, 17, 43, 20, 5, 6, 64, 0)
s = 98: (0, 9, 39, 2, 5, 28, 27, 21, 8, 4, 71, 0)
s = 99: (0, 6, 30, 2, 7, 23, 43, 19, 4, 4, 62, 0)
s = 100: (0, 16, 40, 5, 9, 28, 30, 15, 6, 5, 37, 0)
s = 101: (0, 8, 33, 3, 5, 32, 43, 16, 3, 6, 56, 0)
s = 102: (0, 15, 37, 3, 7, 23, 48, 13, 4, 4, 48, 0)
s = 103: (0, 8, 61, 3, 7, 27, 40, 29, 6, 5, 53, 0)
s = 104: (0, 17, 61, 2, 9, 25, 54, 10, 4, 7, 52, 0)
s = 105: (0, 12, 49, 2, 12, 18, 25, 14, 8, 6, 62, 0)
s = 106: (0, 11, 41, 4, 5, 18, 22, 19, 5, 5, 46, 0)
s = 107: (0, 9, 38, 5, 8, 23, 47, 16, 6, 4, 119, 0)
s = 108: (0, 8, 40, 4, 12, 13, 36, 27, 6, 6, 64, 0)
s = 109: (0, 14, 26, 2, 7, 31, 22, 16, 4, 6, 35, 0)
s = 110: (0, 9, 49, 3, 11, 25, 28, 17, 4, 4, 70, 0)
s = 111: (0, 15, 34, 3, 9, 23, 27, 19, 8, 6, 50, 0)
s = 112: (0, 13, 63, 4, 7, 15, 33, 15, 6, 5, 38, 0)
s = 113: (0, 12, 28, 3, 7, 21, 52, 16, 7, 6, 45, 0)
s = 114: (0, 14, 23, 2, 7, 20, 39, 16, 4, 5, 56, 0)
s = 115: (0, 8, 54, 3, 9, 13, 29, 14, 4, 4, 48, 0)
s = 116: (0, 10, 32, 5, 10, 12, 43, 12, 5, 7, 48, 0)
s = 117: (0, 13, 28, 4, 8, 14, 20, 15, 5, 7, 66, 0)
s = 118: (0, 12, 59, 3, 10, 16, 37, 13, 4, 5, 44, 0)
s = 119: (0, 10, 39, 2, 9, 13, 37, 17, 4, 6, 47, 0)
s = 120: (0, 12, 56, 4, 7, 25, 47, 12, 5, 5, 94, 0)
s = 121: (0, 10, 45, 3, 9, 15, 40, 23, 7, 5, 87, 0)
s = 122: (0, 6, 39, 3, 10, 18, 29, 13, 4, 6, 40, 0)
s = 123: (0, 14, 46, 3, 10, 26, 33, 16, 4, 7, 74, 0)
s = 124: (0, 9, 50, 3, 10, 18, 41, 12, 6, 8, 83, 0)
s = 125: (0, 14, 30, 5, 7, 12, 30, 16, 5, 7, 75, 0)
s = 126: (0, 10, 30, 4, 10, 12, 30, 14, 5, 6, 72, 0)
s = 127: (0, 9, 53, 3, 8, 16, 29, 17, 6, 5, 84, 0)
s = 128: (0, 15, 29, 2, 6, 23, 47, 15, 6, 7, 75, 0)
s = 129: (0, 12, 60, 4, 6, 12, 28, 16, 3, 8, 76, 0)
s = 130: (0, 9, 34, 5, 10, 17, 20, 13, 6, 5, 54, 0)
s = 131: (0, 7, 25, 6, 5, 25, 25, 22, 6, 7, 65, 0)
s = 132: (0, 11, 47, 5, 7, 24, 26, 23, 4, 8, 51, 0)
s = 133: (0, 9, 45, 3, 12, 25, 47, 22, 7, 7, 75, 0)
s = 134: (0, 13, 30, 2, 10, 19, 29, 17, 5, 8, 79, 0)
s = 135: (0, 10, 59, 3, 7, 18, 21, 16, 5, 4, 61, 0)
s = 136: (0, 9, 60, 3, 5, 18, 44, 25, 7, 5, 42, 0)
s = 137: (0, 7, 29, 5, 6, 28, 52, 13, 4, 7, 73, 0)
s = 138: (0, 16, 72, 2, 6, 14, 49, 24, 4, 5, 95, 0)
s = 139: (0, 12, 38, 3, 7, 12, 34, 15, 5, 4, 42, 0)
s = 140: (0, 13, 30, 3, 14, 28, 33, 18, 3, 3, 43, 0)
s = 141: (0, 11, 48, 3, 7, 15, 37, 29, 4, 8, 63, 0)
s = 142: (0, 10, 34, 3, 11, 17, 46, 14, 5, 5, 65, 0)
s = 143: (0, 7, 53, 4, 7, 21, 43, 25, 5, 4, 49, 0)
s = 144: (0, 12, 47, 5, 5, 30, 26, 14, 3, 8, 86, 0)
s = 145: (0, 7, 44, 3, 8, 19, 25, 22, 7, 5, 85, 0)
s = 146: (0, 8, 51, 3, 8, 19, 25, 26, 7, 5, 60, 0)
s = 147: (0, 9, 22, 3, 11, 10, 34, 21, 7, 6, 40, 0)
s = 148: (0, 11, 51, 3, 6, 15, 45, 19, 4, 6, 54, 0)
s = 149: (0, 10, 51, 5, 7, 12, 40, 23, 5, 4, 68, 0)
s = 150: (0, 9, 56, 5, 7, 19, 30, 12, 6, 4, 83, 0)
s = 151: (0, 9, 54, 3, 7, 16, 24, 14, 6, 6, 34, 0)
s = 152: (0, 10, 31, 5, 7, 17, 23, 11, 6, 4, 81, 0)
s = 153: (0, 7, 48, 4, 7, 15, 28, 25, 4, 5, 42, 0)
s = 154: (0, 7, 52, 4, 8, 16, 30, 14, 7, 8, 56, 0)
s = 155: (0, 13, 29, 3, 9, 14, 44, 17, 4, 5, 47, 0)
s = 156: (0, 7, 26, 3, 5, 23, 24, 11, 7, 6, 59, 0)
s = 157: (0, 9, 35, 3, 10, 21, 32, 18, 7, 5, 97, 0)
s = 158: (0, 11, 37, 3, 8, 19, 45, 31, 4, 5, 51, 0)
s = 159: (0, 9, 41, 3, 9, 26, 38, 14, 5, 6, 63, 0)
s = 160: (0, 9, 26, 5, 7, 15, 24, 13, 5, 6, 47, 0)
s = 161: (0, 8, 60, 4, 10, 15, 32, 12, 6, 5, 69, 0)
s = 162: (0, 13, 41, 3, 9, 20, 37, 22, 4, 8, 73, 0)
s = 163: (0, 17, 47, 2, 12, 16, 40, 14, 5, 4, 84, 0)
s = 164: (0, 9, 23, 4, 5, 25, 28, 22, 6, 6, 104, 0)
s = 165: (0, 12, 62, 2, 9, 15, 41, 26, 4, 6, 57, 0)
s = 166: (0, 14, 71, 4, 7, 19, 34, 12, 4, 5, 62, 0)
s = 167: (0, 12, 39, 4, 10, 28, 33, 20, 3, 7, 94, 0)
s = 168: (0, 10, 46, 4, 11, 14, 24, 14, 4, 4, 47, 0)
s = 169: (0, 18, 31, 3, 7, 19, 47, 13, 7, 5, 40, 0)
s = 170: (0, 12, 28, 3, 10, 14, 27, 16, 7, 7, 53, 0)
s = 171: (0, 11, 36, 4, 11, 21, 50, 17, 5, 6, 56, 0)
s = 172: (0, 9, 48, 3, 10, 15, 33, 25, 3, 7, 46, 0)
s = 173: (0, 11, 37, 4, 10, 15, 21, 16, 5, 5, 47, 0)
s = 174: (0, 7, 35, 6, 7, 18, 20, 19, 7, 7, 66, 0)
s = 175: (0, 6, 42, 3, 14, 15, 32, 21, 3, 8, 45, 0)
s = 176: (0, 9, 48, 4, 9, 18, 24, 16, 7, 5, 42, 0)
s = 177: (0, 20, 61, 3, 7, 30, 32, 28, 8, 7, 83, 0)
s = 178: (0, 7, 46, 3, 8, 19, 22, 16, 3, 7, 76, 0)
s = 179: (0, 14, 34, 2, 11, 23, 39, 13, 5, 4, 44, 0)
s = 180: (0, 12, 33, 3, 7, 12, 48, 20, 6, 6, 43, 0)
s = 181: (0, 11, 39, 4, 7, 18, 48, 25, 4, 6, 55, 0)
s = 182: (0, 10, 29, 5, 8, 16, 28, 15, 8, 7, 77, 0)
s = 183: (0, 14, 38, 5, 12, 14, 37, 16, 4, 7, 55, 0)
s = 184: (0, 7, 27, 3, 5, 17, 44, 20, 4, 7, 71, 0)
s = 185: (0, 8, 36, 4, 7, 16, 29, 29, 5, 7, 75, 0)
s = 186: (0, 9, 36, 3, 8, 21, 33, 15, 8, 6, 69, 0)
s = 187: (0, 11, 37, 4, 8, 16, 37, 15, 5, 9, 66, 0)
s = 188: (0, 13, 50, 5, 9, 16, 61, 21, 5, 6, 78, 0)
s = 189: (0, 10, 37, 5, 11, 13, 30, 14, 7, 6, 55, 0)
s = 190: (0, 10, 23, 2, 7, 20, 35, 15, 6, 3, 96, 0)
s = 191: (0, 11, 31, 5, 8, 24, 26, 17, 7, 5, 102, 0)
s = 192: (0, 7, 38, 3, 7, 18, 50, 14, 6, 7, 53, 0)
s = 193: (0, 9, 36, 3, 8, 15, 31, 17, 6, 5, 73, 0)
s = 194: (0, 14, 42, 5, 9, 26, 43, 25, 8, 4, 36, 0)
s = 195: (0, 12, 40, 3, 9, 14, 36, 16, 5, 5, 55, 0)
s = 196: (0, 10, 31, 2, 10, 22, 39, 15, 7, 3, 40, 0)
s = 197: (0, 11, 45, 3, 8, 31, 33, 23, 6, 7, 53, 0)
s = 198: (0, 13, 46, 5, 10, 14, 35, 19, 3, 5, 64, 0)
s = 199: (0, 11, 50, 3, 7, 14, 32, 21, 6, 4, 99, 0)
s = 200: (0, 11, 24, 4, 5, 19, 42, 13, 3, 5, 54, 0)
------------------------------------------------------------------------
RESOURCE k = 2
s = 1: (0, 16, 0, 5, 13, 24, 43, 9, 3, 4, 0, 0)
s = 2: (0, 24, 0, 5, 12, 24, 44, 8, 4, 4, 0, 0)
s = 3: (0, 30, 0, 8, 14, 18, 19, 12, 4, 4, 0, 0)
s = 4: (0, 25, 0, 6, 19, 18, 41, 9, 4, 3, 0, 0)
s = 5: (0, 25, 0, 7, 12, 18, 35, 13, 5, 5, 0, 0)
s = 6: (0, 22, 0, 7, 25, 20, 25, 9, 3, 5, 0, 0)
s = 7: (0, 21, 0, 5, 9, 15, 27, 17, 3, 5, 0, 0)
s = 8: (0, 24, 0, 4, 14, 15, 34, 11, 2, 6, 0, 0)
s = 9: (0, 11, 0, 7, 20, 27, 32, 13, 4, 5, 0, 0)
s = 10: (0, 22, 0, 5, 9, 28, 32, 17, 3, 6, 0, 0)
s = 11: (0, 23, 0, 4, 17, 18, 25, 10, 5, 3, 0, 0)
s = 12: (0, 28, 0, 12, 12, 30, 17, 11, 4, 3, 0, 0)
s = 13: (0, 25, 0, 6, 24, 19, 19, 15, 2, 4, 0, 0)
s = 14: (0, 17, 0, 6, 14, 23, 18, 16, 2, 3, 0, 0)
s = 15: (0, 12, 0, 6, 8, 22, 22, 13, 4, 5, 0, 0)
s = 16: (0, 23, 0, 7, 14, 21, 28, 9, 3, 4, 0, 0)
s = 17: (0, 24, 0, 5, 10, 32, 27, 12, 4, 4, 0, 0)
s = 18: (0, 25, 0, 7, 17, 24, 19, 13, 4, 4, 0, 0)
s = 19: (0, 23, 0, 8, 10, 26, 30, 22, 4, 3, 0, 0)
s = 20: (0, 16, 0, 9, 18, 25, 26, 14, 2, 6, 0, 0)
s = 21: (0, 27, 0, 4, 17, 21, 29, 16, 2, 3, 0, 0)
s = 22: (0, 16, 0, 8, 19, 24, 20, 15, 4, 4, 0, 0)
s = 23: (0, 19, 0, 7, 10, 18, 23, 12, 3, 3, 0, 0)
s = 24: (0, 26, 0, 7, 11, 24, 25, 13, 3, 5, 0, 0)
s = 25: (0, 13, 0, 11, 15, 33, 42, 21, 4, 3, 0, 0)
s = 26: (0, 16, 0, 9, 20, 15, 28, 9, 3, 4, 0, 0)
s = 27: (0, 20, 0, 5, 12, 25, 19, 12, 3, 4, 0, 0)
s = 28: (0, 20, 0, 12, 10, 28, 30, 13, 3, 4, 0, 0)
s = 29: (0, 16, 0, 6, 17, 20, 49, 15, 3, 6, 0, 0)
s = 30: (0, 14, 0, 8, 17, 24, 27, 13, 2, 3, 0, 0)
s = 31: (0, 19, 0, 9, 14, 21, 19, 8, 4, 3, 0, 0)
s = 32: (0, 26, 0, 7, 19, 16, 33, 12, 3, 7, 0, 0)
s = 33: (0, 16, 0, 7, 13, 19, 28, 10, 3, 5, 0, 0)
s = 34: (0, 21, 0, 8, 10, 20, 27, 13, 3, 4, 0, 0)
s = 35: (0, 18, 0, 8, 15, 31, 27, 10, 3, 5, 0, 0)
s = 36: (0, 21, 0, 5, 12, 19, 24, 16, 3, 4, 0, 0)
s = 37: (0, 17, 0, 7, 10, 30, 37, 11, 3, 6, 0, 0)
s = 38: (0, 23, 0, 5, 16, 19, 29, 12, 3, 6, 0, 0)
s = 39: (0, 14, 0, 5, 18, 20, 42, 14, 4, 5, 0, 0)
s = 40: (0, 16, 0, 5, 24, 13, 39, 10, 2, 3, 0, 0)
s = 41: (0, 15, 0, 12, 9, 29, 50, 13, 4, 4, 0, 0)
s = 42: (0, 15, 0, 12, 21, 25, 32, 12, 2, 4, 0, 0)
s = 43: (0, 17, 0, 6, 10, 13, 22, 15, 4, 4, 0, 0)
s = 44: (0, 18, 0, 11, 16, 16, 22, 15, 4, 5, 0, 0)
s = 45: (0, 13, 0, 8, 17, 29, 26, 13, 4, 3, 0, 0)
s = 46: (0, 26, 0, 6, 11, 28, 22, 15, 3, 3, 0, 0)
s = 47: (0, 13, 0, 9, 12, 24, 43, 11, 3, 6, 0, 0)
s = 48: (0, 14, 0, 8, 17, 23, 41, 15, 3, 4, 0, 0)
s = 49: (0, 14, 0, 8, 14, 19, 28, 15, 4, 3, 0, 0)
s = 50: (0, 29, 0, 6, 16, 14, 45, 9, 2, 4, 0, 0)
s = 51: (0, 12, 0, 6, 12, 24, 21, 11, 3, 5, 0, 0)
s = 52: (0, 12, 0, 5, 14, 14, 37, 18, 4, 7, 0, 0)
s = 53: (0, 11, 0, 6, 11, 15, 18, 11, 4, 4, 0, 0)
s = 54: (0, 28, 0, 9, 13, 31, 32, 16, 4, 6, 0, 0)
s = 55: (0, 21, 0, 6, 14, 18, 30, 8, 3, 3, 0, 0)
s = 56: (0, 22, 0, 9, 16, 36, 31, 16, 5, 5, 0, 0)
s = 57: (0, 21, 0, 9, 22, 15, 18, 8, 4, 4, 0, 0)
s = 58: (0, 14, 0, 9, 16, 25, 25, 16, 4, 3, 0, 0)
s = 59: (0, 20, 0, 8, 12, 26, 32, 16, 4, 3, 0, 0)
s = 60: (0, 13, 0, 9, 13, 26, 23, 23, 3, 5, 0, 0)
s = 61: (0, 19, 0, 13, 13, 25, 27, 19, 4, 7, 0, 0)
s = 62: (0, 21, 0, 10, 28, 25, 35, 10, 4, 5, 0, 0)
s = 63: (0, 27, 0, 7, 11, 23, 27, 14, 5, 4, 0, 0)
s = 64: (0, 13, 0, 10, 9, 22, 33, 18, 3, 5, 0, 0)
s = 65: (0, 19, 0, 6, 13, 17, 40, 8, 3, 4, 0, 0)
s = 66: (0, 15, 0, 8, 10, 16, 19, 11, 4, 4, 0, 0)
s = 67: (0, 22, 0, 7, 11, 16, 36, 7, 6, 5, 0, 0)
s = 68: (0, 17, 0, 7, 17, 28, 23, 10, 3, 3, 0, 0)
s = 69: (0, 17, 0, 9, 16, 15, 25, 14, 4, 4, 0, 0)
s = 70: (0, 12, 0, 5, 14, 29, 21, 16, 4, 4, 0, 0)
s = 71: (0, 19, 0, 10, 10, 24, 27, 14, 3, 5, 0, 0)
s = 72: (0, 18, 0, 6, 12, 17, 36, 9, 5, 8, 0, 0)
s = 73: (0, 23, 0, 6, 13, 19, 22, 9, 5, 4, 0, 0)
s = 74: (0, 21, 0, 5, 16, 16, 25, 23, 5, 5, 0, 0)
s = 75: (0, 19, 0, 11, 8, 22, 38, 10, 5, 3, 0, 0)
s = 76: (0, 15, 0, 9, 14, 18, 33, 14, 3, 6, 0, 0)
s = 77: (0, 29, 0, 6, 20, 22, 21, 14, 3, 5, 0, 0)
s = 78: (0, 19, 0, 9, 17, 23, 34, 10, 4, 7, 0, 0)
s = 79: (0, 21, 0, 9, 21, 21, 33, 9, 3, 3, 0, 0)
s = 80: (0, 16, 0, 11, 17, 23, 46, 14, 3, 3, 0, 0)
s = 81: (0, 12, 0, 9, 17, 17, 32, 17, 5, 4, 0, 0)
s = 82: (0, 13, 0, 7, 10, 16, 21, 12, 3, 5, 0, 0)
s = 83: (0, 19, 0, 7, 20, 16, 26, 21, 3, 7, 0, 0)
s = 84: (0, 22, 0, 9, 12, 23, 32, 9, 4, 3, 0, 0)
s = 85: (0, 14, 0, 7, 10, 15, 37, 11, 4, 3, 0, 0)
s = 86: (0, 18, 0, 5, 17, 23, 27, 20, 4, 7, 0, 0)
s = 87: (0, 30, 0, 7, 18, 35, 27, 9, 3, 3, 0, 0)
s = 88: (0, 18, 0, 4, 9, 23, 25, 13, 3, 6, 0, 0)
s = 89: (0, 22, 0, 7, 20, 14, 23, 14, 4, 3, 0, 0)
s = 90: (0, 19, 0, 6, 22, 29, 21, 11, 3, 6, 0, 0)
s = 91: (0, 24, 0, 5, 16, 12, 23, 9, 2, 3, 0, 0)
s = 92: (0, 19, 0, 9, 22, 32, 25, 17, 3, 4, 0, 0)
s = 93: (0, 10, 0, 6, 17, 27, 47, 11, 5, 4, 0, 0)
s = 94: (0, 13, 0, 5, 11, 28, 39, 16, 4, 4, 0, 0)
s = 95: (0, 13, 0, 9, 12, 24, 41, 7, 4, 4, 0, 0)
s = 96: (0, 16, 0, 7, 12, 21, 22, 7, 4, 7, 0, 0)
s = 97: (0, 16, 0, 5, 18, 19, 36, 14, 3, 5, 0, 0)
s = 98: (0, 16, 0, 5, 9, 33, 23, 14, 5, 3, 0, 0)
s = 99: (0, 11, 0, 5, 12, 27, 36, 13, 2, 3, 0, 0)
s = 100: (0, 28, 0, 10, 15, 32, 25, 10, 4, 4, 0, 0)
s = 101: (0, 14, 0, 7, 9, 37, 36, 11, 2, 5, 0, 0)
s = 102: (0, 26, 0, 7, 12, 27, 40, 9, 2, 3, 0, 0)
s = 103: (0, 13, 0, 7, 12, 32, 33, 19, 4, 4, 0, 0)
s = 104: (0, 31, 0, 5, 16, 30, 45, 7, 3, 6, 0, 0)
s = 105: (0, 21, 0, 5, 20, 21, 21, 9, 5, 5, 0, 0)
s = 106: (0, 19, 0, 8, 9, 21, 18, 13, 3, 4, 0, 0)
s = 107: (0, 16, 0, 10, 14, 27, 39, 11, 4, 3, 0, 0)
s = 108: (0, 15, 0, 8, 20, 16, 30, 18, 4, 5, 0, 0)
s = 109: (0, 24, 0, 5, 12, 37, 18, 11, 2, 5, 0, 0)
s = 110: (0, 16, 0, 7, 18, 29, 23, 11, 3, 3, 0, 0)
s = 111: (0, 27, 0, 5, 15, 27, 23, 13, 5, 5, 0, 0)
s = 112: (0, 23, 0, 8, 11, 17, 28, 10, 4, 4, 0, 0)
s = 113: (0, 20, 0, 5, 11, 24, 43, 11, 4, 5, 0, 0)
s = 114: (0, 25, 0, 5, 12, 23, 32, 11, 3, 4, 0, 0)
s = 115: (0, 14, 0, 6, 16, 15, 25, 9, 2, 3, 0, 0)
s = 116: (0, 18, 0, 11, 17, 14, 36, 8, 3, 6, 0, 0)
s = 117: (0, 24, 0, 9, 14, 17, 17, 10, 3, 6, 0, 0)
s = 118: (0, 21, 0, 6, 16, 18, 31, 9, 3, 4, 0, 0)
s = 119: (0, 17, 0, 5, 15, 15, 31, 12, 3, 5, 0, 0)
s = 120: (0, 22, 0, 8, 12, 29, 39, 8, 3, 4, 0, 0)
s = 121: (0, 18, 0, 6, 16, 18, 33, 15, 4, 4, 0, 0)
s = 122: (0, 10, 0, 6, 17, 21, 24, 9, 2, 5, 0, 0)
s = 123: (0, 24, 0, 7, 18, 30, 28, 11, 3, 6, 0, 0)
s = 124: (0, 16, 0, 7, 17, 21, 34, 8, 4, 7, 0, 0)
s = 125: (0, 24, 0, 11, 12, 14, 25, 11, 3, 6, 0, 0)
s = 126: (0, 17, 0, 9, 17, 14, 25, 9, 3, 5, 0, 0)
s = 127: (0, 16, 0, 6, 14, 19, 24, 11, 4, 4, 0, 0)
s = 128: (0, 26, 0, 4, 10, 27, 39, 10, 4, 6, 0, 0)
s = 129: (0, 21, 0, 8, 10, 14, 23, 11, 2, 6, 0, 0)
s = 130: (0, 16, 0, 10, 16, 20, 17, 9, 4, 4, 0, 0)
s = 131: (0, 13, 0, 14, 9, 30, 21, 15, 4, 5, 0, 0)
s = 132: (0, 20, 0, 10, 12, 28, 22, 15, 2, 6, 0, 0)
s = 133: (0, 16, 0, 7, 21, 29, 39, 15, 5, 6, 0, 0)
s = 134: (0, 22, 0, 5, 18, 22, 24, 12, 3, 6, 0, 0)
s = 135: (0, 18, 0, 5, 12, 21, 18, 11, 3, 4, 0, 0)
s = 136: (0, 16, 0, 6, 8, 21, 37, 17, 5, 4, 0, 0)
s = 137: (0, 12, 0, 10, 9, 33, 43, 9, 3, 6, 0, 0)
s = 138: (0, 29, 0, 5, 10, 16, 41, 16, 3, 4, 0, 0)
s = 139: (0, 21, 0, 7, 13, 14, 29, 10, 3, 3, 0, 0)
s = 140: (0, 23, 0, 7, 23, 33, 28, 12, 2, 3, 0, 0)
s = 141: (0, 19, 0, 6, 12, 18, 31, 20, 3, 6, 0, 0)
s = 142: (0, 18, 0, 6, 19, 20, 38, 10, 3, 4, 0, 0)
s = 143: (0, 13, 0, 9, 13, 24, 36, 17, 3, 3, 0, 0)
s = 144: (0, 21, 0, 10, 9, 35, 22, 10, 2, 6, 0, 0)
s = 145: (0, 13, 0, 6, 13, 22, 21, 15, 5, 4, 0, 0)
s = 146: (0, 14, 0, 6, 14, 23, 21, 18, 4, 4, 0, 0)
s = 147: (0, 15, 0, 7, 19, 12, 28, 14, 4, 5, 0, 0)
s = 148: (0, 20, 0, 6, 11, 17, 37, 13, 3, 5, 0, 0)
s = 149: (0, 17, 0, 10, 12, 14, 33, 15, 3, 4, 0, 0)
s = 150: (0, 17, 0, 10, 12, 22, 25, 8, 4, 3, 0, 0)
s = 151: (0, 16, 0, 7, 12, 18, 20, 9, 4, 5, 0, 0)
s = 152: (0, 18, 0, 11, 13, 20, 19, 8, 4, 3, 0, 0)
s = 153: (0, 13, 0, 8, 12, 17, 24, 17, 2, 4, 0, 0)
s = 154: (0, 13, 0, 8, 13, 18, 25, 10, 4, 7, 0, 0)
s = 155: (0, 23, 0, 6, 16, 16, 36, 12, 2, 4, 0, 0)
s = 156: (0, 13, 0, 7, 8, 27, 20, 7, 4, 5, 0, 0)
s = 157: (0, 15, 0, 7, 17, 25, 26, 12, 4, 4, 0, 0)
s = 158: (0, 19, 0, 7, 13, 22, 37, 21, 3, 4, 0, 0)
s = 159: (0, 15, 0, 6, 15, 30, 32, 9, 3, 5, 0, 0)
s = 160: (0, 16, 0, 10, 11, 18, 20, 9, 3, 5, 0, 0)
s = 161: (0, 15, 0, 9, 16, 17, 27, 8, 4, 4, 0, 0)
s = 162: (0, 24, 0, 6, 15, 24, 31, 15, 3, 6, 0, 0)
s = 163: (0, 30, 0, 5, 21, 19, 34, 10, 3, 3, 0, 0)
s = 164: (0, 16, 0, 9, 9, 29, 24, 15, 4, 5, 0, 0)
s = 165: (0, 20, 0, 5, 15, 17, 34, 18, 3, 5, 0, 0)
s = 166: (0, 25, 0, 10, 12, 22, 29, 8, 3, 4, 0, 0)
s = 167: (0, 21, 0, 8, 17, 33, 28, 13, 2, 5, 0, 0)
s = 168: (0, 17, 0, 8, 20, 16, 20, 9, 3, 3, 0, 0)
s = 169: (0, 32, 0, 5, 12, 22, 39, 9, 5, 4, 0, 0)
s = 170: (0, 21, 0, 6, 17, 17, 23, 11, 4, 6, 0, 0)
s = 171: (0, 20, 0, 10, 19, 24, 42, 11, 3, 5, 0, 0)
s = 172: (0, 16, 0, 6, 17, 17, 28, 17, 2, 6, 0, 0)
s = 173: (0, 19, 0, 9, 17, 18, 18, 11, 3, 4, 0, 0)
s = 174: (0, 12, 0, 14, 12, 21, 17, 13, 5, 6, 0, 0)
s = 175: (0, 10, 0, 7, 24, 18, 27, 14, 2, 6, 0, 0)
s = 176: (0, 16, 0, 9, 16, 21, 20, 11, 5, 4, 0, 0)
s = 177: (0, 35, 0, 7, 12, 35, 27, 19, 5, 5, 0, 0)
s = 178: (0, 13, 0, 5, 14, 22, 18, 11, 2, 5, 0, 0)
s = 179: (0, 25, 0, 5, 19, 26, 32, 9, 3, 3, 0, 0)
s = 180: (0, 21, 0, 6, 11, 14, 40, 14, 4, 5, 0, 0)
s = 181: (0, 20, 0, 9, 11, 21, 40, 17, 3, 5, 0, 0)
s = 182: (0, 17, 0, 10, 13, 18, 23, 10, 5, 5, 0, 0)
s = 183: (0, 25, 0, 11, 20, 16, 31, 11, 3, 5, 0, 0)
s = 184: (0, 12, 0, 6, 8, 20, 37, 14, 3, 6, 0, 0)
s = 185: (0, 13, 0, 9, 11, 18, 24, 20, 3, 6, 0, 0)
s = 186: (0, 16, 0, 7, 14, 25, 28, 10, 5, 5, 0, 0)
s = 187: (0, 19, 0, 8, 13, 18, 31, 10, 3, 7, 0, 0)
s = 188: (0, 23, 0, 12, 16, 19, 51, 14, 3, 5, 0, 0)
s = 189: (0, 17, 0, 11, 18, 15, 25, 10, 4, 5, 0, 0)
s = 190: (0, 17, 0, 4, 12, 23, 29, 10, 4, 3, 0, 0)
s = 191: (0, 19, 0, 11, 13, 28, 22, 12, 4, 4, 0, 0)
s = 192: (0, 12, 0, 7, 12, 21, 42, 9, 4, 6, 0, 0)
s = 193: (0, 16, 0, 7, 13, 17, 26, 12, 4, 4, 0, 0)
s = 194: (0, 25, 0, 10, 15, 30, 36, 17, 5, 3, 0, 0)
s = 195: (0, 21, 0, 7, 16, 16, 30, 11, 3, 4, 0, 0)
s = 196: (0, 18, 0, 5, 17, 26, 32, 10, 5, 3, 0, 0)
s = 197: (0, 19, 0, 6, 14, 37, 28, 16, 4, 6, 0, 0)
s = 198: (0, 23, 0, 11, 17, 16, 29, 13, 2, 4, 0, 0)
s = 199: (0, 20, 0, 6, 13, 17, 27, 14, 4, 3, 0, 0)
s = 200: (0, 20, 0, 9, 9, 22, 35, 9, 2, 4, 0, 0)
------------------------------------------------------------------------
RESOURCE k = 3
s = 1: (0, 0, 19, 0, 0, 0, 0, 0, 0, 0, 92, 0)
s = 2: (0, 0, 22, 0, 0, 0, 0, 0, 0, 0, 59, 0)
s = 3: (0, 0, 33, 0, 0, 0, 0, 0, 0, 0, 57, 0)
s = 4: (0, 0, 19, 0, 0, 0, 0, 0, 0, 0, 85, 0)
s = 5: (0, 0, 20, 0, 0, 0, 0, 0, 0, 0, 38, 0)
s = 6: (0, 0, 19, 0, 0, 0, 0, 0, 0, 0, 39, 0)
s = 7: (0, 0, 15, 0, 0, 0, 0, 0, 0, 0, 39, 0)
s = 8: (0, 0, 41, 0, 0, 0, 0, 0, 0, 0, 36, 0)
s = 9: (0, 0, 34, 0, 0, 0, 0, 0, 0, 0, 48, 0)
s = 10: (0, 0, 40, 0, 0, 0, 0, 0, 0, 0, 59, 0)
s = 11: (0, 0, 35, 0, 0, 0, 0, 0, 0, 0, 93, 0)
s = 12: (0, 0, 14, 0, 0, 0, 0, 0, 0, 0, 71, 0)
s = 13: (0, 0, 16, 0, 0, 0, 0, 0, 0, 0, 56, 0)
s = 14: (0, 0, 32, 0, 0, 0, 0, 0, 0, 0, 74, 0)
s = 15: (0, 0, 17, 0, 0, 0, 0, 0, 0, 0, 68, 0)
s = 16: (0, 0, 19, 0, 0, 0, 0, 0, 0, 0, 75, 0)
s = 17: (0, 0, 24, 0, 0, 0, 0, 0, 0, 0, 81, 0)
s = 18: (0, 0, 21, 0, 0, 0, 0, 0, 0, 0, 89, 0)
s = 19: (0, 0, 34, 0, 0, 0, 0, 0, 0, 0, 55, 0)
s = 20: (0, 0, 22, 0, 0, 0, 0, 0, 0, 0, 55, 0)
s = 21: (0, 0, 24, 0, 0, 0, 0, 0, 0, 0, 42, 0)
s = 22: (0, 0, 38, 0, 0, 0, 0, 0, 0, 0, 43, 0)
s = 23: (0, 0, 32, 0, 0, 0, 0, 0, 0, 0, 64, 0)
s = 24: (0, 0, 14, 0, 0, 0, 0, 0, 0, 0, 72, 0)
s = 25: (0, 0, 16, 0, 0, 0, 0, 0, 0, 0, 44, 0)
s = 26: (0, 0, 24, 0, 0, 0, 0, 0, 0, 0, 97, 0)
s = 27: (0, 0, 20, 0, 0, 0, 0, 0, 0, 0, 75, 0)
s = 28: (0, 0, 24, 0, 0, 0, 0, 0, 0, 0, 56, 0)
s = 29: (0, 0, 23, 0, 0, 0, 0, 0, 0, 0, 62, 0)
s = 30: (0, 0, 20, 0, 0, 0, 0, 0, 0, 0, 63, 0)
s = 31: (0, 0, 21, 0, 0, 0, 0, 0, 0, 0, 45, 0)
s = 32: (0, 0, 19, 0, 0, 0, 0, 0, 0, 0, 46, 0)
s = 33: (0, 0, 18, 0, 0, 0, 0, 0, 0, 0, 62, 0)
s = 34: (0, 0, 29, 0, 0, 0, 0, 0, 0, 0, 60, 0)
s = 35: (0, 0, 24, 0, 0, 0, 0, 0, 0, 0, 87, 0)
s = 36: (0, 0, 25, 0, 0, 0, 0, 0, 0, 0, 100, 0)
s = 37: (0, 0, 27, 0, 0, 0, 0, 0, 0, 0, 69, 0)
s = 38: (0, 0, 40, 0, 0, 0, 0, 0, 0, 0, 83, 0)
s = 39: (0, 0, 24, 0, 0, 0, 0, 0, 0, 0, 69, 0)
s = 40: (0, 0, 26, 0, 0, 0, 0, 0, 0, 0, 80, 0)
s = 41: (0, 0, 24, 0, 0, 0, 0, 0, 0, 0, 85, 0)
s = 42: (0, 0, 21, 0, 0, 0, 0, 0, 0, 0, 36, 0)
s = 43: (0, 0, 32, 0, 0, 0, 0, 0, 0, 0, 53, 0)
s = 44: (0, 0, 15, 0, 0, 0, 0, 0, 0, 0, 66, 0)
s = 45: (0, 0, 16, 0, 0, 0, 0, 0, 0, 0, 63, 0)
s = 46: (0, 0, 20, 0, 0, 0, 0, 0, 0, 0, 73, 0)
s = 47: (0, 0, 21, 0, 0, 0, 0, 0, 0, 0, 40, 0)
s = 48: (0, 0, 15, 0, 0, 0, 0, 0, 0, 0, 68, 0)
s = 49: (0, 0, 18, 0, 0, 0, 0, 0, 0, 0, 45, 0)
s = 50: (0, 0, 17, 0, 0, 0, 0, 0, 0, 0, 63, 0)
s = 51: (0, 0, 20, 0, 0, 0, 0, 0, 0, 0, 57, 0)
s = 52: (0, 0, 32, 0, 0, 0, 0, 0, 0, 0, 47, 0)
s = 53: (0, 0, 33, 0, 0, 0, 0, 0, 0, 0, 51, 0)
s = 54: (0, 0, 22, 0, 0, 0, 0, 0, 0, 0, 50, 0)
s = 55: (0, 0, 14, 0, 0, 0, 0, 0, 0, 0, 82, 0)
s = 56: (0, 0, 22, 0, 0, 0, 0, 0, 0, 0, 81, 0)
s = 57: (0, 0, 33, 0, 0, 0, 0, 0, 0, 0, 47, 0)
s = 58: (0, 0, 29, 0, 0, 0, 0, 0, 0, 0, 70, 0)
s = 59: (0, 0, 18, 0, 0, 0, 0, 0, 0, 0, 67, 0)
s = 60: (0, 0, 26, 0, 0, 0, 0, 0, 0, 0, 65, 0)
s = 61: (0, 0, 15, 0, 0, 0, 0, 0, 0, 0, 87, 0)
s = 62: (0, 0, 27, 0, 0, 0, 0, 0, 0, 0, 48, 0)
s = 63: (0, 0, 17, 0, 0, 0, 0, 0, 0, 0, 85, 0)
s = 64: (0, 0, 19, 0, 0, 0, 0, 0, 0, 0, 59, 0)
s = 65: (0, 0, 18, 0, 0, 0, 0, 0, 0, 0, 50, 0)
s = 66: (0, 0, 40, 0, 0, 0, 0, 0, 0, 0, 69, 0)
s = 67: (0, 0, 24, 0, 0, 0, 0, 0, 0, 0, 83, 0)
s = 68: (0, 0, 20, 0, 0, 0, 0, 0, 0, 0, 63, 0)
s = 69: (0, 0, 22, 0, 0, 0, 0, 0, 0, 0, 89, 0)
s = 70: (0, 0, 20, 0, 0, 0, 0, 0, 0, 0, 53, 0)
s = 71: (0, 0, 23, 0, 0, 0, 0, 0, 0, 0, 118, 0)
s = 72: (0, 0, 32, 0, 0, 0, 0, 0, 0, 0, 67, 0)
s = 73: (0, 0, 25, 0, 0, 0, 0, 0, 0, 0, 53, 0)
s = 74: (0, 0, 31, 0, 0, 0, 0, 0, 0, 0, 42, 0)
s = 75: (0, 0, 30, 0, 0, 0, 0, 0, 0, 0, 40, 0)
s = 76: (0, 0, 23, 0, 0, 0, 0, 0, 0, 0, 53, 0)
s = 77: (0, 0, 23, 0, 0, 0, 0, 0, 0, 0, 70, 0)
s = 78: (0, 0, 14, 0, 0, 0, 0, 0, 0, 0, 39, 0)
s = 79: (0, 0, 23, 0, 0, 0, 0, 0, 0, 0, 67, 0)
s = 80: (0, 0, 34, 0, 0, 0, 0, 0, 0, 0, 63, 0)
s = 81: (0, 0, 17, 0, 0, 0, 0, 0, 0, 0, 89, 0)
s = 82: (0, 0, 33, 0, 0, 0, 0, 0, 0, 0, 88, 0)
s = 83: (0, 0, 19, 0, 0, 0, 0, 0, 0, 0, 53, 0)
s = 84: (0, 0, 18, 0, 0, 0, 0, 0, 0, 0, 51, 0)
s = 85: (0, 0, 19, 0, 0, 0, 0, 0, 0, 0, 72, 0)
s = 86: (0, 0, 29, 0, 0, 0, 0, 0, 0, 0, 39, 0)
s = 87: (0, 0, 26, 0, 0, 0, 0, 0, 0, 0, 77, 0)
s = 88: (0, 0, 24, 0, 0, 0, 0, 0, 0, 0, 51, 0)
s = 89: (0, 0, 19, 0, 0, 0, 0, 0, 0, 0, 54, 0)
s = 90: (0, 0, 25, 0, 0, 0, 0, 0, 0, 0, 59, 0)
s = 91: (0, 0, 35, 0, 0, 0, 0, 0, 0, 0, 50, 0)
s = 92: (0, 0, 26, 0, 0, 0, 0, 0, 0, 0, 45, 0)
s = 93: (0, 0, 16, 0, 0, 0, 0, 0, 0, 0, 45, 0)
s = 94: (0, 0, 35, 0, 0, 0, 0, 0, 0, 0, 57, 0)
s = 95: (0, 0, 39, 0, 0, 0, 0, 0, 0, 0, 52, 0)
s = 96: (0, 0, 16, 0, 0, 0, 0, 0, 0, 0, 117, 0)
s = 97: (0, 0, 31, 0, 0, 0, 0, 0, 0, 0, 64, 0)
s = 98: (0, 0, 24, 0, 0, 0, 0, 0, 0, 0, 71, 0)
s = 99: (0, 0, 18, 0, 0, 0, 0, 0, 0, 0, 62, 0)
s = 100: (0, 0, 24, 0, 0, 0, 0, 0, 0, 0, 37, 0)
s = 101: (0, 0, 20, 0, 0, 0, 0, 0, 0, 0, 56, 0)
s = 102: (0, 0, 22, 0, 0, 0, 0, 0, 0, 0, 48, 0)
s = 103: (0, 0, 37, 0, 0, 0, 0, 0, 0, 0, 53, 0)
s = 104: (0, 0, 37, 0, 0, 0, 0, 0, 0, 0, 52, 0)
s = 105: (0, 0, 29, 0, 0, 0, 0, 0, 0, 0, 62, 0)
s = 106: (0, 0, 25, 0, 0, 0, 0, 0, 0, 0, 46, 0)
s = 107: (0, 0, 23, 0, 0, 0, 0, 0, 0, 0, 119, 0)
s = 108: (0, 0, 24, 0, 0, 0, 0, 0, 0, 0, 64, 0)
s = 109: (0, 0, 16, 0, 0, 0, 0, 0, 0, 0, 35, 0)
s = 110: (0, 0, 30, 0, 0, 0, 0, 0, 0, 0, 70, 0)
s = 111: (0, 0, 20, 0, 0, 0, 0, 0, 0, 0, 50, 0)
s = 112: (0, 0, 38, 0, 0, 0, 0, 0, 0, 0, 38, 0)
s = 113: (0, 0, 17, 0, 0, 0, 0, 0, 0, 0, 45, 0)
s = 114: (0, 0, 14, 0, 0, 0, 0, 0, 0, 0, 56, 0)
s = 115: (0, 0, 32, 0, 0, 0, 0, 0, 0, 0, 48, 0)
s = 116: (0, 0, 20, 0, 0, 0, 0, 0, 0, 0, 48, 0)
s = 117: (0, 0, 17, 0, 0, 0, 0, 0, 0, 0, 66, 0)
s = 118: (0, 0, 36, 0, 0, 0, 0, 0, 0, 0, 44, 0)
s = 119: (0, 0, 24, 0, 0, 0, 0, 0, 0, 0, 47, 0)
s = 120: (0, 0, 34, 0, 0, 0, 0, 0, 0, 0, 94, 0)
s = 121: (0, 0, 27, 0, 0, 0, 0, 0, 0, 0, 87, 0)
s = 122: (0, 0, 24, 0, 0, 0, 0, 0, 0, 0, 40, 0)
s = 123: (0, 0, 28, 0, 0, 0, 0, 0, 0, 0, 74, 0)
s = 124: (0, 0, 30, 0, 0, 0, 0, 0, 0, 0, 83, 0)
s = 125: (0, 0, 18, 0, 0, 0, 0, 0, 0, 0, 75, 0)
s = 126: (0, 0, 18, 0, 0, 0, 0, 0, 0, 0, 72, 0)
s = 127: (0, 0, 32, 0, 0, 0, 0, 0, 0, 0, 84, 0)
s = 128: (0, 0, 18, 0, 0, 0, 0, 0, 0, 0, 75, 0)
s = 129: (0, 0, 36, 0, 0, 0, 0, 0, 0, 0, 76, 0)
s = 130: (0, 0, 20, 0, 0, 0, 0, 0, 0, 0, 54, 0)
s = 131: (0, 0, 15, 0, 0, 0, 0, 0, 0, 0, 65, 0)
s = 132: (0, 0, 28, 0, 0, 0, 0, 0, 0, 0, 51, 0)
s = 133: (0, 0, 27, 0, 0, 0, 0, 0, 0, 0, 75, 0)
s = 134: (0, 0, 18, 0, 0, 0, 0, 0, 0, 0, 79, 0)
s = 135: (0, 0, 36, 0, 0, 0, 0, 0, 0, 0, 61, 0)
s = 136: (0, 0, 36, 0, 0, 0, 0, 0, 0, 0, 42, 0)
s = 137: (0, 0, 18, 0, 0, 0, 0, 0, 0, 0, 73, 0)
s = 138: (0, 0, 43, 0, 0, 0, 0, 0, 0, 0, 95, 0)
s = 139: (0, 0, 23, 0, 0, 0, 0, 0, 0, 0, 42, 0)
s = 140: (0, 0, 18, 0, 0, 0, 0, 0, 0, 0, 43, 0)
s = 141: (0, 0, 29, 0, 0, 0, 0, 0, 0, 0, 63, 0)
s = 142: (0, 0, 21, 0, 0, 0, 0, 0, 0, 0, 65, 0)
s = 143: (0, 0, 32, 0, 0, 0, 0, 0, 0, 0, 49, 0)
s = 144: (0, 0, 29, 0, 0, 0, 0, 0, 0, 0, 86, 0)
s = 145: (0, 0, 26, 0, 0, 0, 0, 0, 0, 0, 85, 0)
s = 146: (0, 0, 31, 0, 0, 0, 0, 0, 0, 0, 60, 0)
s = 147: (0, 0, 13, 0, 0, 0, 0, 0, 0, 0, 40, 0)
s = 148: (0, 0, 31, 0, 0, 0, 0, 0, 0, 0, 54, 0)
s = 149: (0, 0, 31, 0, 0, 0, 0, 0, 0, 0, 68, 0)
s = 150: (0, 0, 34, 0, 0, 0, 0, 0, 0, 0, 83, 0)
s = 151: (0, 0, 32, 0, 0, 0, 0, 0, 0, 0, 34, 0)
s = 152: (0, 0, 19, 0, 0, 0, 0, 0, 0, 0, 81, 0)
s = 153: (0, 0, 29, 0, 0, 0, 0, 0, 0, 0, 42, 0)
s = 154: (0, 0, 31, 0, 0, 0, 0, 0, 0, 0, 56, 0)
s = 155: (0, 0, 17, 0, 0, 0, 0, 0, 0, 0, 47, 0)
s = 156: (0, 0, 16, 0, 0, 0, 0, 0, 0, 0, 59, 0)
s = 157: (0, 0, 21, 0, 0, 0, 0, 0, 0, 0, 97, 0)
s = 158: (0, 0, 23, 0, 0, 0, 0, 0, 0, 0, 51, 0)
s = 159: (0, 0, 25, 0, 0, 0, 0, 0, 0, 0, 63, 0)
s = 160: (0, 0, 16, 0, 0, 0, 0, 0, 0, 0, 47, 0)
s = 161: (0, 0, 36, 0, 0, 0, 0, 0, 0, 0, 69, 0)
s = 162: (0, 0, 25, 0, 0, 0, 0, 0, 0, 0, 73, 0)
s = 163: (0, 0, 28, 0, 0, 0, 0, 0, 0, 0, 84, 0)
s = 164: (0, 0, 14, 0, 0, 0, 0, 0, 0, 0, 104, 0)
s = 165: (0, 0, 37, 0, 0, 0, 0, 0, 0, 0, 57, 0)
s = 166: (0, 0, 43, 0, 0, 0, 0, 0, 0, 0, 62, 0)
s = 167: (0, 0, 23, 0, 0, 0, 0, 0, 0, 0, 94, 0)
s = 168: (0, 0, 28, 0, 0, 0, 0, 0, 0, 0, 47, 0)
s = 169: (0, 0, 19, 0, 0, 0, 0, 0, 0, 0, 40, 0)
s = 170: (0, 0, 17, 0, 0, 0, 0, 0, 0, 0, 53, 0)
s = 171: (0, 0, 22, 0, 0, 0, 0, 0, 0, 0, 56, 0)
s = 172: (0, 0, 29, 0, 0, 0, 0, 0, 0, 0, 46, 0)
s = 173: (0, 0, 23, 0, 0, 0, 0, 0, 0, 0, 47, 0)
s = 174: (0, 0, 21, 0, 0, 0, 0, 0, 0, 0, 66, 0)
s = 175: (0, 0, 26, 0, 0, 0, 0, 0, 0, 0, 45, 0)
s = 176: (0, 0, 29, 0, 0, 0, 0, 0, 0, 0, 42, 0)
s = 177: (0, 0, 37, 0, 0, 0, 0, 0, 0, 0, 83, 0)
s = 178: (0, 0, 28, 0, 0, 0, 0, 0, 0, 0, 76, 0)
s = 179: (0, 0, 21, 0, 0, 0, 0, 0, 0, 0, 44, 0)
s = 180: (0, 0, 20, 0, 0, 0, 0, 0, 0, 0, 43, 0)
s = 181: (0, 0, 24, 0, 0, 0, 0, 0, 0, 0, 55, 0)
s = 182: (0, 0, 18, 0, 0, 0, 0, 0, 0, 0, 77, 0)
s = 183: (0, 0, 23, 0, 0, 0, 0, 0, 0, 0, 55, 0)
s = 184: (0, 0, 16, 0, 0, 0, 0, 0, 0, 0, 71, 0)
s = 185: (0, 0, 22, 0, 0, 0, 0, 0, 0, 0, 75, 0)
s = 186: (0, 0, 22, 0, 0, 0, 0, 0, 0, 0, 69, 0)
s = 187: (0, 0, 22, 0, 0, 0, 0, 0, 0, 0, 66, 0)
s = 188: (0, 0, 30, 0, 0, 0, 0, 0, 0, 0, 78, 0)
s = 189: (0, 0, 22, 0, 0, 0, 0, 0, 0, 0, 55, 0)
s = 190: (0, 0, 14, 0, 0, 0, 0, 0, 0, 0, 96, 0)
s = 191: (0, 0, 19, 0, 0, 0, 0, 0, 0, 0, 102, 0)
s = 192: (0, 0, 23, 0, 0, 0, 0, 0, 0, 0, 53, 0)
s = 193: (0, 0, 22, 0, 0, 0, 0, 0, 0, 0, 73, 0)
s = 194: (0, 0, 25, 0, 0, 0, 0, 0, 0, 0, 36, 0)
s = 195: (0, 0, 24, 0, 0, 0, 0, 0, 0, 0, 55, 0)
s = 196: (0, 0, 19, 0, 0, 0, 0, 0, 0, 0, 40, 0)
s = 197: (0, 0, 27, 0, 0, 0, 0, 0, 0, 0, 53, 0)
s = 198: (0, 0, 28, 0, 0, 0, 0, 0, 0, 0, 64, 0)
s = 199: (0, 0, 30, 0, 0, 0, 0, 0, 0, 0, 99, 0)
s = 200: (0, 0, 15, 0, 0, 0, 0, 0, 0, 0, 54, 0)
************************************************************************
ES/LS-VALUES:
jobnr.   ES(i)    LS(i)
------------------------------------------------------------------------
  0        0        0
  1        0       35
  2        0       37
  3        0       70
  4        4       56
  5        4       39
  6        9       45
  7       19       56
  8        4       72
  9        9       72
 10       22       60
 11       35       74
************************************************************************
BIG-M-VALUES:
M1 = 61, M2 = 277
************************************************************************
